Graphite
 1.0000000000000000
     2.4680000000000000    0.0000000000000000    0.0000000000000000
    -1.2339999999999995    2.1373506965399947    0.0000000000000000
     0.0000000000000000    0.0000000000000000    6.7800000000000002
   4
Direct
  0.0000000000000000  0.0000000000000000  0.2500000000000000
  0.0000000000000000  0.0000000000000000  0.7500000000000000
  0.3333333300000000  0.6666666700000000  0.2500000000000000
  0.6666666700000000  0.3333333300000000  0.7500000000000000
